--- Job gams_0128_016_32_04_0.67_05_0.50_0.90_09_problem.txt Start 02/25/21 04:31:03 35.2.0 r33388c4 WEX-WEI x86 64bit/MS Windows
--- Applying:
    C:\Users\MariaSosnovskaya\GAMS35\gmsprmNT.txt
--- GAMS Parameters defined
    Input C:\Users\MariaSosnovskaya\Downloads\WfmGams3\problems\gams_0128_016_32_04_0.67_05_0.50_0.90_09_problem.txt
    ScrDir C:\Users\MariaSosnovskaya\Downloads\WfmGams3\225l\
    SysDir C:\Users\MariaSosnovskaya\GAMS35\
Licensee: GAMS Evaluation License                        S210124/0001AB-GEN
          Sobolev Institute of Mathematics, Discrete Optimization LaDCE1098
          C:\Users\MariaSosnovskaya\GAMS35\gamslice.txt
          Evaluation license: Not for commercial or production use
GAMS 35.2.0   Copyright (C) 1987-2021 GAMS Development. All rights reserved
--- Starting compilation
--- gams_0128_016_32_04_0.67_05_0.50_0.90_09_problem.txt(22) 3 Mb
--- . gams_0128_016_32_04_0.67_05_0.50_0.90_09.inc(17160) 4 Mb
--- gams_0128_016_32_04_0.67_05_0.50_0.90_09_problem.txt(98) 4 Mb
--- Starting execution: elapsed 0:00:00.090
--- gams_0128_016_32_04_0.67_05_0.50_0.90_09_problem.txt(17181) 5 Mb
--- Generating MIP model mymodel
--- gams_0128_016_32_04_0.67_05_0.50_0.90_09_problem.txt(17222) 18 Mb--- gams_0128_016_32_04_0.67_05_0.50_0.90_09_problem.txt(17229) 33 Mb--- gams_0128_016_32_04_0.67_05_0.50_0.90_09_problem.txt(17234) 39 Mb--- gams_0128_016_32_04_0.67_05_0.50_0.90_09_problem.txt(17237) 40 Mb
---   91,265 rows  81,921 columns  405,697 non-zeroes
---   81,920 discrete-columns
--- Executing CPLEX (Solvelink=2): elapsed 0:00:00.794

IBM ILOG CPLEX   35.2.0 r33388c4 Released Jun 02, 2021 WEI x86 64bit/MS Window

--- GAMS/Cplex licensed for continuous and discrete problems.
--- Space for names approximately 3.85 Mb
--- Use option 'names no' to turn use of names off
--- GMO memory 38.78 Mb (peak 39.41 Mb)
--- Dictionary memory 0.00 Mb
--- Cplex 20.1.0.1 link memory 2.61 Mb (peak 13.14 Mb)
--- Starting Cplex

Version identifier: 20.1.0.1 | 2021-04-07 | 3a818710c
CPXPARAM_Advance                                 0
CPXPARAM_Threads                                 1
CPXPARAM_MIP_Display                             4
CPXPARAM_TimeLimit                               3600
CPXPARAM_MIP_Tolerances_AbsMIPGap                0
Generic callback                                 0x50
Tried aggregator 2 times.
MIP Presolve eliminated 73986 rows and 52826 columns.
Aggregator did 384 substitutions.
Reduced MIP has 16895 rows, 28712 columns, and 94474 nonzeros.
Reduced MIP has 28712 binaries, 0 generals, 0 SOSs, and 0 indicators.
Presolve time = 0.30 sec. (143.33 ticks)
Probing fixed 1350 vars, tightened 0 bounds.
Probing changed sense of 68 constraints.
Probing time = 0.30 sec. (75.68 ticks)
Tried aggregator 16 times.
Detecting symmetries...
MIP Presolve eliminated 544 rows and 1478 columns.
Aggregator did 544 substitutions.
Reduced MIP has 15807 rows, 26690 columns, and 88442 nonzeros.
Reduced MIP has 26690 binaries, 0 generals, 0 SOSs, and 0 indicators.
Presolve time = 1.75 sec. (800.25 ticks)
Probing time = 0.03 sec. (8.18 ticks)
Clique table members: 63399.
MIP emphasis: balance optimality and feasibility.
MIP search method: dynamic search.
Parallel mode: none, using 1 thread.
Tried aggregator 1 time.
No LP presolve or aggregator reductions.
Presolve time = 0.02 sec. (12.88 ticks)
Initializing dual steep norms . . .

Iteration log . . .
Iteration:     1   Dual objective     =         16524.000000
Perturbation started.
Iteration:   101   Dual objective     =         16524.000000
Iteration:   670   Dual objective     =         16523.999678
Iteration:  1226   Dual objective     =         16523.999404
Iteration:  1757   Dual objective     =         16523.999256
Iteration:  2261   Dual objective     =         16523.999113
Iteration:  2770   Dual objective     =         16523.998949
Iteration:  3298   Dual objective     =         16523.998811
Iteration:  3825   Dual objective     =         16523.998682
Iteration:  4354   Dual objective     =         16523.998535
Iteration:  4908   Dual objective     =         16523.998378
Iteration:  5398   Dual objective     =         16523.998269
Iteration:  5869   Dual objective     =         16523.998211
Iteration:  6352   Dual objective     =         16523.998159
Iteration:  6841   Dual objective     =         16523.998099
Iteration:  7316   Dual objective     =         16523.998059
Iteration:  7771   Dual objective     =         16523.998015
Iteration:  8213   Dual objective     =         16523.997981
Iteration:  8651   Dual objective     =         16523.997951
Iteration:  9089   Dual objective     =         16523.997923
Iteration:  9509   Dual objective     =         16523.997900
Iteration:  9942   Dual objective     =         16523.997878
Iteration: 10349   Dual objective     =         16523.997859
Iteration: 10764   Dual objective     =         16523.997840
Iteration: 11114   Dual objective     =         16523.997824
Iteration: 11355   Dual objective     =         16523.997813
Iteration: 11576   Dual objective     =         16523.997804
Iteration: 11800   Dual objective     =         16523.997795
Iteration: 12060   Dual objective     =         16523.997782
Iteration: 12262   Dual objective     =         16523.997772
Iteration: 12485   Dual objective     =         16523.997761
Iteration: 12700   Dual objective     =         16523.997751
Iteration: 12893   Dual objective     =         16523.997744
Iteration: 13110   Dual objective     =         16523.997735
Iteration: 13282   Dual objective     =         16523.997729
Iteration: 13482   Dual objective     =         16523.997720
Iteration: 13670   Dual objective     =         16523.997714
Iteration: 13825   Dual objective     =         16523.997709
Iteration: 14020   Dual objective     =         16523.997701
Iteration: 14187   Dual objective     =         16523.997696
Iteration: 14365   Dual objective     =         16523.997688
Iteration: 14515   Dual objective     =         16523.997684
Iteration: 14701   Dual objective     =         16523.997675
Iteration: 14878   Dual objective     =         16523.997671
Iteration: 15050   Dual objective     =         16523.997666
Iteration: 15229   Dual objective     =         16523.997662
Iteration: 15397   Dual objective     =         16523.997658
Iteration: 15570   Dual objective     =         16523.997654
Iteration: 15730   Dual objective     =         16523.997650
Iteration: 15891   Dual objective     =         16523.997646
Iteration: 16042   Dual objective     =         16523.997643
Iteration: 16189   Dual objective     =         16523.997639
Iteration: 16336   Dual objective     =         16523.997637
Iteration: 16484   Dual objective     =         16523.997633
Iteration: 16622   Dual objective     =         16523.997630
Iteration: 16765   Dual objective     =         16523.997627
Iteration: 16919   Dual objective     =         16523.997624
Iteration: 17061   Dual objective     =         16523.997622
Iteration: 17200   Dual objective     =         16523.997620
Iteration: 17338   Dual objective     =         16523.997619
Iteration: 17479   Dual objective     =         16523.997617
Iteration: 17616   Dual objective     =         16523.997616
Iteration: 17757   Dual objective     =         16523.997614
Iteration: 17893   Dual objective     =         16523.997613
Iteration: 18018   Dual objective     =         16523.997612
Iteration: 18157   Dual objective     =         16523.997611
Iteration: 18296   Dual objective     =         16523.997610
Iteration: 18432   Dual objective     =         16523.997609
Iteration: 18576   Dual objective     =         16523.997608
Iteration: 18722   Dual objective     =         16523.997607
Iteration: 18856   Dual objective     =         16523.997606
Iteration: 18993   Dual objective     =         16523.997606
Iteration: 19130   Dual objective     =         16523.997605
Iteration: 19264   Dual objective     =         16523.997605
Iteration: 19410   Dual objective     =         16523.997605
Iteration: 19552   Dual objective     =         16523.997605
Removing perturbation.

Iteration log . . .
Iteration:     1   Dual objective     =         16524.000000
Root relaxation solution time = 12.03 sec. (4925.68 ticks)

        Nodes                                         Cuts/
   Node  Left     Objective  IInf  Best Integer    Best Bound    ItCnt     Gap

      0     0    16524.0000  4181                  16524.0000    19565         
      0     0    16524.0000  2442                    Cuts: 49    21104         
      0     0    16524.0000  2338                   Cuts: 224    23047         
      0     0    16524.0000  2409                   Cuts: 190    25084         
      0     0    16524.0000  1018                ZeroHalf: 12    25357         
      0     0    16524.0000  1225               ZeroHalf: 116    27086         
*     0+    0                        16486.0000    16524.0000             0.23%
Found incumbent of value 16486.000000 after 41.62 sec. (19078.43 ticks)
*     0+    0                        16499.0000    16524.0000             0.15%
Found incumbent of value 16499.000000 after 41.70 sec. (19109.41 ticks)
*     0+    0                        16500.0000    16524.0000             0.15%
Found incumbent of value 16500.000000 after 41.76 sec. (19143.95 ticks)
*     0+    0                        16509.0000    16524.0000             0.09%
Found incumbent of value 16509.000000 after 41.89 sec. (19195.79 ticks)
*     0+    0                        16511.0000    16524.0000             0.08%
Found incumbent of value 16511.000000 after 41.90 sec. (19212.10 ticks)
*     0+    0                        16520.0000    16524.0000             0.02%
Found incumbent of value 16520.000000 after 42.07 sec. (19283.95 ticks)
      0     2    16524.0000   645    16520.0000    16524.0000    27086    0.02%
Elapsed time = 42.34 sec. (19389.57 ticks, tree = 0.01 MB, solutions = 6)
      4     6    16524.0000   569    16520.0000    16524.0000    28596    0.02%
     10    12    16524.0000   432    16520.0000    16524.0000    29945    0.02%
     21    23    16524.0000   663    16520.0000    16524.0000    31801    0.02%
     33    35    16524.0000   410    16520.0000    16524.0000    33579    0.02%
     41    43    16523.0000   514    16520.0000    16524.0000    35644    0.02%
     55    57    16524.0000   386    16520.0000    16524.0000    37514    0.02%
     64    66    16524.0000   281    16520.0000    16524.0000    39037    0.02%
     68    70    16524.0000   489    16520.0000    16524.0000    41481    0.02%
     77    79    16524.0000   365    16520.0000    16524.0000    43781    0.02%
    130   132    16524.0000   197    16520.0000    16524.0000    50585    0.02%
Elapsed time = 49.40 sec. (23045.34 ticks, tree = 2.63 MB, solutions = 6)
*   159     1      integral     0    16524.0000    16524.0000    53632    0.00%
Found incumbent of value 16524.000000 after 50.42 sec. (23552.28 ticks)

Zero-half cuts applied:  176
Lift and project cuts applied:  3
Gomory fractional cuts applied:  6

Root node processing (before b&c):
  Real time             =   42.24 sec. (19353.82 ticks)
Sequential b&c:
  Real time             =    8.19 sec. (4214.03 ticks)
                          ------------
Total (root+branch&cut) =   50.43 sec. (23567.85 ticks)

--- MIP status (101): integer optimal solution.
--- Cplex Time: 50.43sec (det. 23568.08 ticks)

--- Fixing integer variables and solving final LP...

Version identifier: 20.1.0.1 | 2021-04-07 | 3a818710c
CPXPARAM_Advance                                 2
CPXPARAM_Threads                                 1
CPXPARAM_MIP_Display                             4
CPXPARAM_TimeLimit                               3600
CPXPARAM_MIP_Tolerances_AbsMIPGap                0
Tried aggregator 1 time.
LP Presolve eliminated 91265 rows and 81922 columns.
All rows and columns eliminated.
Presolve time = 0.08 sec. (46.02 ticks)

--- Fixed MIP status (1): optimal.
--- Cplex Time: 0.14sec (det. 76.59 ticks)


Proven optimal solution
MIP Solution:        16524.000000    (53632 iterations, 160 nodes)
Final Solve:         16524.000000    (0 iterations)

Best possible:       16524.000000
Absolute gap:            0.000000
Relative gap:            0.000000

--- Reading solution for model mymodel
--- gams_0128_016_32_04_0.67_05_0.50_0.90_09_problem.txt(17237) 40 Mb  51 secs
--- Executing after solve: elapsed 0:00:52.509
--- gams_0128_016_32_04_0.67_05_0.50_0.90_09_problem.txt(17238) 40 Mb--- gams_0128_016_32_04_0.67_05_0.50_0.90_09_problem.txt(17258) 40 Mb
--- Putfile results C:\Users\MariaSosnovskaya\Downloads\WfmGams3\problems\gams_0128_016_32_04_0.67_05_0.50_0.90_09_results.txt
*** Status: Normal completion
--- Job gams_0128_016_32_04_0.67_05_0.50_0.90_09_problem.txt Stop 02/25/21 04:31:56 elapsed 0:00:52.688
